Maximize
 obj: 4.185 z1 + 1.341 z2 + 2.529 z3 + 1.161 z4 + 0.93 x2 + 0.843 x3 + 2.238 x4 + 2.516 x5 
Subject To
 c0: 33 x1 + 32 x2 + 42 x3 + 45 x4 + 62 x5 <= 60
 c1: x2 + x4 + x5 - z1 >= 0
 c2: x5 - z2 >= 0
 c3: x3 + x4 + x5 - z3 >= 0
 c4: x5 - z4 >= 0
Bounds
 0 <= z1 <= 1
 0 <= z2 <= 1
 0 <= z3 <= 1
 0 <= z4 <= 1
 0 <= x1 <= 1
 0 <= x2 <= 1
 0 <= x3 <= 1
 0 <= x4 <= 1
 0 <= x5 <= 1
Integers
 z1
 z2
 z3
 z4
 x1
 x2
 x3
 x4
 x5
End
